(set-option :print-success false)
(set-logic QF_UF)
(declare-sort x150 0)
(declare-sort x89 0)
(declare-fun x135 () x89)
(declare-fun x83 () x89)
(declare-fun x67 () x89)
(declare-fun x108 (x89 x89) x89)
(declare-fun x101 () x89)
(declare-fun x16 () x89)
(declare-fun x72 (x89 x89) x89)
(assert (let ((x59 (x72 x135 x135)) (x103 (x72 x16 x135)) (x104 (x72 x16 x83)) (x58 (x72 x101 x135)) (x73 (x72 x101 x101)) (x30 (x72 x67 x16)) (x9 (x72 x83 x101)) (x128 (x72 x135 x16)) (x121 (x72 x83 x16)) (x140 (x72 x67 x101)) (x117 (x72 x83 x67)) (x148 (x72 x135 x67)) (x154 (x72 x67 x83)) (x65 (x72 x83 x83)) (x130 (x72 x67 x67)) (x155 (x72 x16 x67)) (x69 (x72 x101 x83)) (x62 (x72 x135 x83)) (x44 (x72 x16 x16)) (x52 (x72 x83 x135)) (x146 (x72 x101 x16)) (x99 (x72 x135 x101)) (x156 (x72 x67 x135)) (x36 (x72 x101 x67)) (x79 (x72 x16 x101))) (let ((x115 (not (= x101 x9))) (x25 (not (= x101 x128))) (x71 (not (= x140 x67))) (x87 (not (= x135 x62))) (x40 (not (= x99 x135))) (x120 (not (= x83 x154))) (x109 (not (= x99 x101))) (x17 (not (= x101 x30))) (x85 (not (= x104 x101))) (x78 (not (= x146 x16))) (x8 (not (= x59 x135))) (x76 (not (= x83 x130))) (x82 (not (= x154 x16))) (x158 (not (= x135 x36))) (x77 (not (= x154 x101))) (x41 (not (= x121 x135))) (x60 (not (= x135 x79))) (x98 (not (= x117 x101))) (x133 (not (= x62 x83))) (x132 (not (= x135 x73))) (x1 (not (= x83 x36))) (x56 (not (= x83 x104))) (x61 (not (= x69 x16))) (x74 (not (= x59 x16))) (x75 (not (= x30 x67))) (x95 (not (= x103 x101))) (x32 (not (= x135 x44))) (x38 (not (= x9 x83))) (x45 (not (= x65 x83))) (x5 (not (= x104 x16))) (x114 (not (= x73 x67))) (x84 (not (= x62 x101))) (x111 (not (= x73 x101))) (x10 (not (= x101 x140))) (x26 (not (= x103 x83))) (x141 (not (= x83 x148))) (x6 (not (= x83 x117))) (x126 (not (= x135 x104))) (x4 (not (= x73 x83))) (x136 (not (= x59 x67))) (x33 (not (= x99 x83))) (x93 (not (= x73 x16))) (x116 (not (= x101 x146))) (x11 (not (= x146 x83))) (x42 (not (= x16 x156))) (x149 (not (= x79 x67))) (x157 (not (= x65 x101))) (x70 (not (= x16 x148))) (x12 (not (= x156 x135))) (x37 (not (= x130 x135))) (x102 (not (= x83 x58))) (x24 (not (= x155 x16))) (x53 (not (= x36 x67))) (x107 (not (= x62 x16))) (x113 (not (= x101 x130))) (x97 (not (= x155 x83))) (x3 (not (= x69 x67))) (x159 (not (= x83 x44))) (x50 (not (= x103 x135))) (x2 (not (= x83 x52))) (x147 (not (= x135 x140))) (x123 (not (= x135 x128))) (x64 (not (= x16 x52))) (x125 (not (= x67 x99))) (x145 (not (= x83 x140))) (x94 (not (= x52 x135))) (x54 (not (= x101 x156))) (x124 (not (= x146 x67))) (x28 (not (= x101 x44))) (x14 (not (= x83 x59))) (x34 (not (= x67 x148))) (x152 (not (= x16 x65))) (x134 (not (= x67 x62))) (x51 (not (= x52 x67))) (x23 (not (= x103 x67))) (x19 (not (= x67 x130))) (x18 (not (= x67 x58))) (x27 (not (= x16 x130))) (x57 (not (= x69 x101))) (x131 (not (= x16 x30))) (x68 (not (= x79 x16))) (x96 (not (= x16 x121))) (x92 (not (= x156 x67))) (x29 (not (= x30 x83))) (x20 (not (= x67 x9))) (x48 (not (= x140 x16))) (x139 (not (= x135 x117))) (x46 (not (= x128 x16))) (x7 (not (= x117 x67))) (x110 (not (= x135 x65))) (x13 (not (= x16 x58))) (x66 (not (= x135 x148))) (x35 (not (= x101 x36))) (x112 (not (= x69 x83))) (x119 (not (= x83 x156))) (x142 (not (= x69 x135))) (x129 (not (= x146 x135))) (x47 (not (= x44 x16))) (x138 (not (= x67 x154))) (x127 (not (= x121 x101))) (x81 (not (= x30 x135))) (x21 (not (= x83 x121))) (x153 (not (= x9 x135))) (x43 (not (= x83 x79))) (x106 (not (= x104 x67))) (x143 (not (= x36 x16))) (x100 (not (= x101 x79))) (x122 (not (= x101 x155))) (x137 (not (= x16 x103))) (x55 (not (= x67 x65))) (x63 (not (= x135 x154))) (x90 (not (= x128 x67))) (x144 (not (= x101 x148))) (x91 (not (= x135 x58))) (x86 (not (= x128 x83))) (x88 (not (= x101 x58))) (x22 (not (= x117 x16))) (x49 (not (= x135 x155))) (x118 (not (= x101 x52))) (x39 (not (= x101 x59))) (x151 (not (= x67 x44))) (x80 (not (= x155 x67))) (x15 (not (= x16 x9))) (x105 (not (= x121 x67))) (x31 (not (= x16 x99)))) (or (and (and (and (or x75 x80) (and (or x138 x7) (and (or x71 x53) (or x34 x92)))) (or x19 x19)) (and (and (and (and (or x105 x106) (and (and (or x20 x3) (or x51 x134)) (or x55 x55))) (or x138 x7)) (and (and (or x71 x53) (and (and (and (or x114 x114) (or x18 x125)) (or x20 x3)) (or x149 x124))) (and (or x34 x92) (and (or x90 x23) (and (and (or x125 x18) (or x136 x136)) (or x134 x51)))))) (and (or x75 x80) (and (or x151 x151) (and (and (or x90 x23) (or x124 x149)) (or x106 x105)))))) (or (or (or (and (and (and (or x122 x17) (and (and (or x85 x127) (and (or x95 x25) (or x116 x100))) (or x28 x28))) (and (and (and (or x35 x10) (and (and (and (or x111 x111) (or x109 x88)) (or x115 x57)) (or x100 x116))) (and (and (and (or x118 x84) (and (or x39 x39) (or x88 x109))) (or x25 x95)) (or x54 x144))) (and (and (or x85 x127) (and (and (or x118 x84) (or x115 x57)) (or x157 x157))) (or x98 x77)))) (and (or x113 x113) (and (and (or x98 x77) (and (or x10 x35) (or x54 x144))) (or x122 x17)))) (and (and (and (and (and (and (or x60 x129) (and (and (or x132 x132) (or x40 x91)) (or x142 x153))) (or x158 x147)) (and (and (and (and (or x8 x8) (or x91 x40)) (or x94 x87)) (or x123 x50)) (or x12 x66))) (and (or x63 x139) (and (and (or x110 x110) (and (or x153 x142) (or x94 x87))) (or x126 x41)))) (and (or x49 x81) (and (and (or x126 x41) (and (or x123 x50) (or x60 x129))) (or x32 x32)))) (and (or x37 x37) (and (and (or x63 x139) (and (or x12 x66) (or x147 x158))) (or x49 x81))))) (and (and (and (or x29 x97) (and (or x6 x120) (and (or x1 x145) (or x119 x141)))) (or x76 x76)) (and (and (and (or x6 x120) (and (and (and (or x133 x2) (or x38 x112)) (or x45 x45)) (or x21 x56))) (and (and (or x145 x1) (and (and (or x112 x38) (and (or x33 x102) (or x4 x4))) (or x11 x43))) (and (or x141 x119) (and (or x86 x26) (and (and (or x14 x14) (or x33 x102)) (or x133 x2)))))) (and (or x29 x97) (and (and (and (or x11 x43) (or x86 x26)) (or x56 x21)) (or x159 x159)))))) (and (and (and (or x131 x24) (and (or x47 x47) (and (or x96 x5) (and (or x46 x137) (or x78 x68))))) (and (and (and (and (or x137 x46) (and (and (or x31 x13) (or x74 x74)) (or x107 x64))) (or x70 x42)) (and (and (or x68 x78) (and (and (or x13 x31) (or x93 x93)) (or x15 x61))) (or x48 x143))) (and (or x82 x22) (and (or x5 x96) (and (or x152 x152) (and (or x61 x15) (or x64 x107))))))) (and (and (and (or x22 x82) (and (or x70 x42) (or x143 x48))) (or x24 x131)) (or x27 x27))))))))
(assert (or (and (= x67 (x72 (x72 x67 x67) x67)) (and (and (and (= (x72 (x72 x135 x67) x67) x135) (= x101 (x72 (x72 x101 x67) x67))) (= x83 (x72 (x72 x83 x67) x67))) (= x16 (x72 (x72 x16 x67) x67)))) (or (and (= (x72 (x72 x67 x16) x16) x67) (and (= (x72 (x72 x16 x16) x16) x16) (and (= x83 (x72 (x72 x83 x16) x16)) (and (= x101 (x72 (x72 x101 x16) x16)) (= (x72 (x72 x135 x16) x16) x135))))) (or (and (= (x72 (x72 x67 x83) x83) x67) (and (and (and (= x101 (x72 (x72 x101 x83) x83)) (= x135 (x72 (x72 x135 x83) x83))) (= x83 (x72 (x72 x83 x83) x83))) (= x16 (x72 (x72 x16 x83) x83)))) (or (and (and (and (= x83 (x72 (x72 x83 x101) x101)) (and (= x135 (x72 (x72 x135 x101) x101)) (= (x72 (x72 x101 x101) x101) x101))) (= x16 (x72 (x72 x16 x101) x101))) (= (x72 (x72 x67 x101) x101) x67)) (and (= (x72 (x72 x67 x135) x135) x67) (and (and (= x83 (x72 (x72 x83 x135) x135)) (and (= x135 (x72 (x72 x135 x135) x135)) (= (x72 (x72 x101 x135) x135) x101))) (= (x72 (x72 x16 x135) x135) x16))))))))
(assert (and (and (= (x72 x83 x83) x16) (and (= x101 (x72 x83 x16)) (= x135 (x72 x16 x67)))) (= (x72 x101 x16) x67)))
(assert (let ((x88 (x72 x135 x135)) (x57 (x72 x67 x67)) (x109 (x72 x101 x101)) (x39 (x72 x83 x83)) (x115 (x72 x16 x16))) (let ((x84 (= x88 x135)) (x25 (= x83 x39)) (x127 (= x57 x67)) (x111 (= x101 x109)) (x85 (= x16 x115))) (let ((x100 (or (or (= x83 x115) (or x25 (or (= x83 x88) (= x83 x109)))) (= x57 x83))) (x118 (or (= x57 x101) (or (or (= x101 x39) (or (= x101 x88) x111)) (= x101 x115)))) (x95 (or x127 (or (= x115 x67) (or (or (= x109 x67) (= x67 x88)) (= x39 x67))))) (x116 (or (= x57 x16) (or x85 (or (= x16 x39) (or (= x16 x88) (= x109 x16)))))) (x157 (or (or (or (or (= x109 x135) x84) (= x39 x135)) (= x115 x135)) (= x57 x135)))) (and (and (and (and (and (and (or (not (= (x72 x135 x16) x135)) x116) (and (and (or x157 (not x84)) (or (not (= (x72 x135 x101) x135)) x118)) (or (not (= (x72 x135 x83) x135)) x100))) (or x95 (not (= x135 (x72 x135 x67))))) (and (or (not (= x101 (x72 x101 x67))) x95) (and (or (not (= (x72 x101 x16) x101)) x116) (and (and (or (not (= (x72 x101 x135) x101)) x157) (or x118 (not x111))) (or x100 (not (= (x72 x101 x83) x101))))))) (and (and (or (not (= (x72 x83 x16) x83)) x116) (and (and (or x118 (not (= (x72 x83 x101) x83))) (or x157 (not (= (x72 x83 x135) x83)))) (or x100 (not x25)))) (or (not (= (x72 x83 x67) x83)) x95))) (and (or (not (= x16 (x72 x16 x67))) x95) (and (and (or x100 (not (= x16 (x72 x16 x83)))) (and (or (not (= x16 (x72 x16 x101))) x118) (or (not (= x16 (x72 x16 x135))) x157))) (or (not x85) x116)))) (and (and (or x116 (not (= x67 (x72 x67 x16)))) (and (and (or (not (= x67 (x72 x67 x135))) x157) (or (not (= x67 (x72 x67 x101))) x118)) (or x100 (not (= x67 (x72 x67 x83)))))) (or x95 (not x127))))))))
(assert (let ((x98 (x72 x135 x67)) (x132 (x72 x67 x135)) (x133 (x72 x67 x16)) (x143 (x72 x67 x67)) (x115 (x72 x101 x16)) (x57 (x72 x101 x67)) (x148 (x72 x83 x83)) (x157 (x72 x83 x101)) (x88 (x72 x101 x135)) (x144 (x72 x135 x83)) (x109 (x72 x101 x101)) (x77 (x72 x135 x16)) (x39 (x72 x101 x83)) (x100 (x72 x16 x101)) (x33 (x72 x16 x16)) (x102 (x72 x16 x67)) (x65 (x72 x16 x83)) (x110 (x72 x67 x83)) (x153 (x72 x83 x67)) (x84 (x72 x135 x101)) (x116 (x72 x67 x101)) (x73 (x72 x16 x135)) (x54 (x72 x135 x135)) (x156 (x72 x83 x16)) (x113 (x72 x83 x135))) (let ((x79 (= x16 x54)) (x13 (= x67 x156)) (x41 (= x16 x148)) (x140 (= x67 x88)) (x28 (= x88 x101)) (x71 (= x116 x67)) (x136 (= x98 x83)) (x62 (= x101 x144)) (x121 (= x157 x83)) (x12 (= x73 x101)) (x90 (= x98 x16)) (x131 (= x135 x143)) (x137 (= x101 x102)) (x20 (= x153 x83)) (x130 (= x100 x135)) (x126 (= x16 x144)) (x120 (= x16 x156)) (x149 (= x16 x110)) (x74 (= x67 x33)) (x3 (= x83 x102)) (x2 (= x135 x33)) (x87 (= x135 x148)) (x31 (= x67 x77)) (x106 (= x16 x153)) (x94 (= x144 x135)) (x112 (= x156 x135)) (x48 (= x135 x133)) (x70 (= x135 x98)) (x86 (= x77 x83)) (x122 (= x54 x135)) (x63 (= x115 x101)) (x78 (= x153 x101)) (x69 (= x83 x54)) (x141 (= x77 x16)) (x145 (= x73 x16)) (x23 (= x57 x16)) (x32 (= x113 x67)) (x66 (= x101 x65)) (x8 (= x39 x101)) (x47 (= x135 x110)) (x81 (= x156 x101)) (x22 (= x102 x135)) (x111 (= x101 x109)) (x96 (= x132 x135)) (x80 (= x102 x67)) (x42 (= x57 x135)) (x46 (= x101 x143)) (x91 (= x101 x157)) (x50 (= x16 x113)) (x53 (= x132 x67)) (x30 (= x144 x67)) (x82 (= x135 x153)) (x117 (= x83 x39)) (x147 (= x148 x67)) (x11 (= x83 x65)) (x21 (= x33 x83)) (x6 (= x16 x33)) (x127 (= x84 x101)) (x119 (= x16 x115)) (x56 (= x156 x83)) (x10 (= x54 x101)) (x64 (= x110 x101)) (x154 (= x144 x83)) (x5 (= x116 x135)) (x59 (= x113 x101)) (x99 (= x88 x83)) (x49 (= x101 x33)) (x43 (= x73 x83)) (x95 (= x109 x83)) (x7 (= x98 x67)) (x155 (= x39 x67)) (x151 (= x16 x143)) (x25 (= x16 x109)) (x26 (= x115 x83)) (x15 (= x101 x116)) (x159 (= x100 x16)) (x27 (= x83 x132)) (x107 (= x133 x101)) (x17 (= x135 x88)) (x139 (= x101 x77)) (x37 (= x73 x135)) (x1 (= x16 x65)) (x58 (= x83 x84)) (x45 (= x83 x100)) (x55 (= x132 x16)) (x76 (= x65 x67)) (x85 (= x67 x109)) (x61 (= x101 x132)) (x29 (= x67 x100)) (x125 (= x133 x83)) (x75 (= x67 x153)) (x134 (= x16 x116)) (x103 (= x135 x113)) (x18 (= x83 x57)) (x128 (= x157 x135)) (x52 (= x148 x101)) (x138 (= x57 x67)) (x142 (= x39 x135)) (x129 (= x157 x16)) (x118 (= x135 x109)) (x68 (= x98 x101)) (x123 (= x39 x16)) (x36 (= x67 x84)) (x152 (= x101 x57)) (x60 (= x148 x83)) (x97 (= x67 x73)) (x4 (= x135 x65)) (x14 (= x115 x135)) (x124 (= x133 x16)) (x19 (= x67 x143)) (x34 (= x67 x133)) (x51 (= x143 x83)) (x9 (= x16 x84)) (x24 (= x83 x116)) (x114 (= x83 x110)) (x105 (= x16 x102)) (x35 (= x135 x84)) (x104 (= x113 x83)) (x40 (= x54 x67)) (x92 (= x67 x110)) (x44 (= x157 x67)) (x158 (= x101 x100)) (x93 (= x115 x67)) (x38 (= x77 x135)) (x146 (= x88 x16))) (and (and (and (and (and (and (and (or (or (or x129 (or x9 x25)) x159) x134) (or (or (or x123 (or x146 x25)) x119) x23)) (and (and (or (or x26 (or (or x99 x95) x117)) x18) (or (or x45 (or (or x95 x58) x121)) x24)) (and (and (or x42 (or x14 (or (or x118 x17) x142))) (or (or (or (or x118 x35) x128) x130) x5)) (and (or (or x158 (or x91 (or x127 x111))) x15) (or (or x63 (or (or x28 x111) x8)) x152))))) (and (or (or (or x155 (or x85 x140)) x93) x138) (or (or x29 (or (or x36 x85) x44)) x71))) (and (and (or (or x31 (or x30 (or x40 x36))) x7) (or (or (or (or x140 x40) x32) x97) x53)) (and (and (and (or (or x43 (or (or x69 x99) x104)) x27) (or (or (or (or x69 x58) x154) x86) x136)) (and (and (or (or (or x59 (or x28 x10)) x12) x61) (or (or (or x62 (or x127 x10)) x139) x68)) (and (or x70 (or x38 (or x94 (or x122 x35)))) (or x96 (or (or x103 (or x122 x17)) x37))))) (and (or x90 (or x141 (or (or x9 x79) x126))) (or x55 (or (or (or x79 x146) x50) x145)))))) (and (and (or (or (or x147 (or x30 x155)) x76) x92) (or (or x13 (or (or x32 x44) x147)) x75)) (and (and (and (and (or (or x4 (or (or x142 x94) x87)) x47) (or (or (or x87 (or x128 x103)) x112) x82)) (and (or x64 (or (or (or x8 x62) x52) x66)) (or (or (or (or x59 x91) x52) x81) x78))) (and (or x20 (or (or (or x104 x121) x60) x56)) (or (or x11 (or (or x117 x154) x60)) x114))) (and (or (or (or (or x123 x126) x41) x1) x149) (or (or (or x41 (or x129 x50)) x120) x106))))) (and (and (or (or (or x76 (or x97 x29)) x74) x80) (or x34 (or x74 (or (or x93 x31) x13)))) (and (and (and (or x3 (or x21 (or x11 (or x43 x45)))) (or (or (or x56 (or x26 x86)) x21) x125)) (and (and (or x22 (or x2 (or (or x130 x37) x4))) (or (or x2 (or x112 (or x38 x14))) x48)) (and (or x137 (or x49 (or x66 (or x158 x12)))) (or x107 (or (or x81 (or x63 x139)) x49))))) (and (or (or (or x1 (or x145 x159)) x6) x105) (or x124 (or x6 (or x120 (or x119 x141)))))))) (and (and (or x19 (or (or (or x7 x138) x75) x80)) (or x19 (or x34 (or (or x71 x53) x92)))) (and (and (or (or (or (or x134 x55) x149) x124) x151) (or x151 (or x105 (or (or x23 x90) x106)))) (and (and (or x51 (or (or (or x136 x18) x20) x3)) (or (or (or (or x27 x24) x114) x125) x51)) (and (and (or x46 (or (or (or x152 x68) x78) x137)) (or x46 (or (or x64 (or x61 x15)) x107))) (and (or (or (or (or x70 x42) x82) x22) x131) (or (or x48 (or x47 (or x5 x96))) x131))))))))))
(assert (and (and (and (or (= x67 (x72 x83 (x72 x83 x67))) (or (or (or (= (x72 x83 (x72 x83 x101)) x101) (= (x72 x83 (x72 x83 x135)) x135)) (= x83 (x72 x83 (x72 x83 x83)))) (= x16 (x72 x83 (x72 x83 x16))))) (and (or (or (= x16 (x72 x101 (x72 x101 x16))) (or (= (x72 x101 (x72 x101 x83)) x83) (or (= x135 (x72 x101 (x72 x101 x135))) (= x101 (x72 x101 (x72 x101 x101)))))) (= x67 (x72 x101 (x72 x101 x67)))) (or (or (or (= (x72 x135 (x72 x135 x83)) x83) (or (= (x72 x135 (x72 x135 x101)) x101) (= (x72 x135 (x72 x135 x135)) x135))) (= (x72 x135 (x72 x135 x16)) x16)) (= x67 (x72 x135 (x72 x135 x67)))))) (or (= (x72 x16 (x72 x16 x67)) x67) (or (= x16 (x72 x16 (x72 x16 x16))) (or (or (= (x72 x16 (x72 x16 x101)) x101) (= (x72 x16 (x72 x16 x135)) x135)) (= (x72 x16 (x72 x16 x83)) x83))))) (or (or (or (= (x72 x67 (x72 x67 x83)) x83) (or (= x101 (x72 x67 (x72 x67 x101))) (= (x72 x67 (x72 x67 x135)) x135))) (= x16 (x72 x67 (x72 x67 x16)))) (= x67 (x72 x67 (x72 x67 x67))))))
(assert (not (and (= (x72 x67 x67) x101) (and (and (= (x72 x67 x83) x83) (and (= (x72 x67 x135) x16) (and (= x67 (x72 x67 x101)) (and (= (x72 x16 x67) x135) (and (= (x72 x16 x16) x83) (and (= x101 (x72 x16 x83)) (and (= x67 (x72 x16 x135)) (and (= (x72 x16 x101) x16) (and (and (and (= (x72 x83 x83) x16) (and (and (and (= x83 (x72 x135 x67)) (and (= x16 (x72 x135 x16)) (and (= (x72 x135 x83) x67) (and (= x135 (x72 x135 x135)) (and (= x101 (x72 x135 x101)) (and (and (and (and (= x101 (x72 x101 x135)) (= x83 (x72 x101 x101))) (= (x72 x101 x83) x135)) (= x67 (x72 x101 x16))) (= x16 (x72 x101 x67)))))))) (= (x72 x83 x101) x135)) (= x83 (x72 x83 x135)))) (= (x72 x83 x16) x101)) (= (x72 x83 x67) x67)))))))))) (= x135 (x72 x67 x16))))))
(assert (let ((x95 (x72 x83 x135)) (x35 (x72 x16 x83)) (x84 (x72 x135 x83)) (x10 (x72 x16 x135)) (x144 (x72 x16 x67)) (x115 (x72 x101 x67)) (x100 (x72 x135 x67)) (x25 (x72 x83 x83)) (x77 (x72 x67 x101)) (x116 (x72 x83 x101)) (x39 (x72 x101 x16)) (x85 (x72 x83 x16)) (x54 (x72 x16 x16)) (x98 (x72 x67 x135)) (x28 (x72 x16 x101)) (x122 (x72 x67 x16)) (x127 (x72 x83 x67)) (x111 (x72 x101 x101)) (x57 (x72 x135 x101)) (x157 (x72 x135 x16)) (x17 (x72 x67 x83)) (x88 (x72 x101 x83)) (x118 (x72 x135 x135)) (x109 (x72 x101 x135)) (x113 (x72 x67 x67))) (and (and (and (and (and (and (and (and (or (or (or (= x111 x83) (or (= x111 x135) (= x111 x101))) (= x16 x111)) (= x111 x67)) (or (= x109 x67) (or (= x16 x109) (or (= x109 x83) (or (= x109 x101) (= x135 x109)))))) (or (or (or (= x88 x83) (or (= x88 x135) (= x101 x88))) (= x16 x88)) (= x67 x88))) (or (or (or (= x83 x39) (or (= x39 x101) (= x39 x135))) (= x39 x16)) (= x39 x67))) (or (= x115 x67) (or (or (= x83 x115) (or (= x135 x115) (= x101 x115))) (= x115 x16)))) (and (or (= x100 x67) (or (= x16 x100) (or (or (= x100 x135) (= x100 x101)) (= x83 x100)))) (and (and (or (or (= x16 x84) (or (= x83 x84) (or (= x84 x135) (= x101 x84)))) (= x67 x84)) (and (or (= x67 x118) (or (= x16 x118) (or (= x83 x118) (or (= x118 x101) (= x118 x135))))) (or (= x57 x67) (or (= x57 x16) (or (= x57 x83) (or (= x57 x101) (= x135 x57))))))) (or (or (= x16 x157) (or (= x83 x157) (or (= x135 x157) (= x101 x157)))) (= x157 x67))))) (and (or (or (or (= x83 x127) (or (= x101 x127) (= x127 x135))) (= x127 x16)) (= x67 x127)) (and (or (= x85 x67) (or (= x16 x85) (or (= x85 x83) (or (= x135 x85) (= x101 x85))))) (and (or (or (= x16 x25) (or (or (= x25 x135) (= x101 x25)) (= x25 x83))) (= x25 x67)) (and (or (or (or (or (= x95 x135) (= x95 x101)) (= x83 x95)) (= x95 x16)) (= x67 x95)) (or (= x67 x116) (or (or (= x116 x83) (or (= x135 x116) (= x116 x101))) (= x16 x116)))))))) (and (and (and (and (or (or (= x16 x10) (or (= x83 x10) (or (= x10 x101) (= x135 x10)))) (= x10 x67)) (or (or (= x16 x28) (or (= x28 x83) (or (= x28 x101) (= x28 x135)))) (= x67 x28))) (or (= x35 x67) (or (= x35 x16) (or (or (= x35 x135) (= x101 x35)) (= x83 x35))))) (or (= x54 x67) (or (or (or (= x54 x135) (= x54 x101)) (= x83 x54)) (= x54 x16)))) (or (= x144 x67) (or (or (= x83 x144) (or (= x144 x101) (= x135 x144))) (= x16 x144))))) (and (and (and (or (or (or (= x83 x17) (or (= x135 x17) (= x101 x17))) (= x16 x17)) (= x67 x17)) (and (or (or (= x16 x77) (or (= x77 x83) (or (= x77 x101) (= x77 x135)))) (= x67 x77)) (or (or (= x16 x98) (or (or (= x98 x101) (= x135 x98)) (= x83 x98))) (= x67 x98)))) (or (= x122 x67) (or (= x16 x122) (or (= x122 x83) (or (= x135 x122) (= x101 x122)))))) (or (= x113 x67) (or (or (or (= x135 x113) (= x113 x101)) (= x113 x83)) (= x16 x113)))))))
(assert (or (and (and (and (not (= (x72 (x72 x83 x67) x67) x83)) (and (not (= x101 (x72 (x72 x101 x67) x67))) (not (= x135 (x72 (x72 x135 x67) x67))))) (not (= (x72 (x72 x16 x67) x67) x16))) (not (= (x72 (x72 x67 x67) x67) x67))) (or (or (or (and (not (= x67 (x72 (x72 x67 x101) x101))) (and (and (and (not (= x101 (x72 (x72 x101 x101) x101))) (not (= (x72 (x72 x135 x101) x101) x135))) (not (= (x72 (x72 x83 x101) x101) x83))) (not (= (x72 (x72 x16 x101) x101) x16)))) (and (not (= x67 (x72 (x72 x67 x135) x135))) (and (not (= x16 (x72 (x72 x16 x135) x135))) (and (and (not (= (x72 (x72 x101 x135) x135) x101)) (not (= x135 (x72 (x72 x135 x135) x135)))) (not (= x83 (x72 (x72 x83 x135) x135))))))) (and (not (= (x72 (x72 x67 x83) x83) x67)) (and (not (= x16 (x72 (x72 x16 x83) x83))) (and (not (= x83 (x72 (x72 x83 x83) x83))) (and (not (= x101 (x72 (x72 x101 x83) x83))) (not (= x135 (x72 (x72 x135 x83) x83)))))))) (and (and (not (= x16 (x72 (x72 x16 x16) x16))) (and (and (not (= x135 (x72 (x72 x135 x16) x16))) (not (= (x72 (x72 x101 x16) x16) x101))) (not (= x83 (x72 (x72 x83 x16) x16))))) (not (= (x72 (x72 x67 x16) x16) x67))))))
(assert (let ((x39 (x72 x16 x16)) (x115 (x72 x67 x67)) (x88 (x72 x83 x83)) (x109 (x72 x135 x135)) (x111 (x72 x101 x101))) (or (and (not (= x67 x115)) (and (not (= x39 x67)) (and (and (not (= x111 x67)) (not (= x67 x109))) (not (= x67 x88))))) (or (or (and (not (= x83 x115)) (and (and (and (not (= x83 x111)) (not (= x109 x83))) (not (= x83 x88))) (not (= x83 x39)))) (or (and (not (= x115 x135)) (and (and (not (= x88 x135)) (and (not (= x109 x135)) (not (= x135 x111)))) (not (= x39 x135)))) (and (and (and (not (= x101 x88)) (and (not (= x101 x111)) (not (= x109 x101)))) (not (= x39 x101))) (not (= x101 x115))))) (and (not (= x16 x115)) (and (not (= x39 x16)) (and (not (= x16 x88)) (and (not (= x111 x16)) (not (= x16 x109))))))))))
(assert (let ((x39 (x72 x16 x101)) (x88 (x72 x83 x101)) (x54 (x72 x16 x16)) (x95 (x72 x135 x83)) (x25 (x72 x83 x83)) (x118 (x72 x135 x135)) (x28 (x72 x101 x16)) (x127 (x72 x67 x83)) (x113 (x72 x67 x67)) (x57 (x72 x101 x135)) (x98 (x72 x135 x67)) (x17 (x72 x83 x67)) (x115 (x72 x67 x101)) (x144 (x72 x67 x16)) (x35 (x72 x83 x16)) (x116 (x72 x101 x83)) (x100 (x72 x67 x135)) (x111 (x72 x101 x101)) (x10 (x72 x135 x16)) (x109 (x72 x135 x101)) (x157 (x72 x16 x135)) (x85 (x72 x16 x83)) (x84 (x72 x83 x135)) (x77 (x72 x101 x67)) (x122 (x72 x16 x67))) (and (and (and (and (and (and (and (and (and (not (= x57 x77)) (and (not (= x28 x57)) (and (not (= x116 x57)) (and (not (= x77 x111)) (and (not (= x28 x111)) (and (not (= x111 x116)) (not (= x111 x57)))))))) (not (= x116 x28))) (not (= x116 x77))) (not (= x77 x28))) (and (and (and (not (= x95 x10)) (and (and (not (= x10 x118)) (and (not (= x95 x118)) (and (and (and (not (= x95 x109)) (not (= x118 x109))) (not (= x10 x109))) (not (= x109 x98))))) (not (= x98 x118)))) (not (= x95 x98))) (not (= x98 x10)))) (and (and (and (and (not (= x17 x84)) (and (not (= x84 x35)) (and (not (= x84 x25)) (and (and (not (= x35 x88)) (and (not (= x84 x88)) (not (= x88 x25)))) (not (= x17 x88)))))) (not (= x35 x25))) (not (= x17 x25))) (not (= x17 x35)))) (and (and (not (= x122 x85)) (and (and (and (not (= x157 x54)) (and (and (not (= x122 x39)) (and (not (= x39 x54)) (and (not (= x39 x157)) (not (= x39 x85))))) (not (= x157 x85)))) (not (= x122 x157))) (not (= x85 x54)))) (not (= x54 x122)))) (and (and (not (= x127 x113)) (and (and (not (= x113 x100)) (and (and (and (and (and (not (= x115 x127)) (not (= x100 x115))) (not (= x144 x115))) (not (= x113 x115))) (not (= x100 x127))) (not (= x100 x144)))) (not (= x144 x127)))) (not (= x144 x113)))) (and (and (and (and (and (and (and (and (and (not (= x25 x95)) (and (and (not (= x85 x116)) (and (not (= x95 x116)) (not (= x25 x116)))) (not (= x127 x116)))) (not (= x85 x95))) (not (= x95 x127))) (not (= x25 x85))) (not (= x25 x127))) (not (= x85 x127))) (and (and (and (and (not (= x39 x88)) (and (not (= x109 x115)) (and (not (= x109 x39)) (and (not (= x109 x88)) (and (and (and (not (= x111 x88)) (not (= x109 x111))) (not (= x111 x39))) (not (= x115 x111))))))) (not (= x115 x88))) (not (= x115 x39))) (and (not (= x100 x157)) (and (not (= x84 x100)) (and (and (and (not (= x118 x157)) (and (and (not (= x57 x100)) (and (not (= x57 x157)) (and (not (= x57 x84)) (not (= x118 x57))))) (not (= x118 x84)))) (not (= x100 x118))) (not (= x84 x157))))))) (and (not (= x144 x54)) (and (and (and (and (and (not (= x10 x35)) (and (and (not (= x28 x54)) (and (not (= x10 x28)) (not (= x35 x28)))) (not (= x144 x28)))) (not (= x10 x54))) (not (= x10 x144))) (not (= x35 x54))) (not (= x35 x144))))) (and (not (= x113 x122)) (and (not (= x113 x17)) (and (not (= x17 x122)) (and (and (and (and (and (not (= x122 x77)) (and (not (= x17 x77)) (not (= x98 x77)))) (not (= x113 x77))) (not (= x98 x17))) (not (= x122 x98))) (not (= x98 x113))))))))))
(assert (and (and (and (not (= x83 x16)) (and (and (not (= x16 x135)) (and (and (and (not (= x16 x101)) (and (not (= x135 x101)) (not (= x101 x83)))) (not (= x67 x101))) (not (= x83 x135)))) (not (= x67 x135)))) (not (= x67 x83))) (not (= x16 x67))))
(assert (or (= (x72 x67 x67) x67) (or (= (x72 x16 x16) x16) (or (= (x72 x83 x83) x83) (or (= x135 (x72 x135 x135)) (= (x72 x101 x101) x101))))))
(assert (or (and (not (= x67 (x72 (x72 x67 x67) x67))) (and (and (and (not (= (x72 (x72 x67 x101) x67) x101)) (not (= x135 (x72 (x72 x67 x135) x67)))) (not (= x83 (x72 (x72 x67 x83) x67)))) (not (= x16 (x72 (x72 x67 x16) x67))))) (or (and (and (not (= (x72 (x72 x16 x16) x16) x16)) (and (and (not (= (x72 (x72 x16 x101) x16) x101)) (not (= x135 (x72 (x72 x16 x135) x16)))) (not (= x83 (x72 (x72 x16 x83) x16))))) (not (= (x72 (x72 x16 x67) x16) x67))) (or (or (and (and (not (= x16 (x72 (x72 x135 x16) x135))) (and (not (= (x72 (x72 x135 x83) x135) x83)) (and (not (= x135 (x72 (x72 x135 x135) x135))) (not (= (x72 (x72 x135 x101) x135) x101))))) (not (= x67 (x72 (x72 x135 x67) x135)))) (and (not (= x67 (x72 (x72 x101 x67) x101))) (and (and (and (not (= (x72 (x72 x101 x101) x101) x101)) (not (= x135 (x72 (x72 x101 x135) x101)))) (not (= x83 (x72 (x72 x101 x83) x101)))) (not (= (x72 (x72 x101 x16) x101) x16))))) (and (not (= x67 (x72 (x72 x83 x67) x83))) (and (not (= x16 (x72 (x72 x83 x16) x83))) (and (not (= (x72 (x72 x83 x83) x83) x83)) (and (not (= (x72 (x72 x83 x101) x83) x101)) (not (= x135 (x72 (x72 x83 x135) x83)))))))))))
(check-sat)
(exit)
